
  23    0


   0  12 2 4 5 6 7 8 17 18 19 20 21 22 
   8   3 16 9 3 
   2   4 13 12 11 10 
  10   4 15 14 12 10 
   5   2 11 9 
   6   2 10 9 
   2   1 9 
   4   1 9 
   9   1 23
   7   1 23
   6   1 23
   4   1 23
   2   1 23
   3   1 23
   4   1 23
   4   1 23
   7   1 23
   9   1 23
   9   1 23
   8   1 23
   7   1 23
   5   1 23
   0   0 
